c "random instance"
p edges 150 3334
e 1 2
e 1 4
e 1 9
e 1 10
e 1 13
e 1 17
e 1 24
e 1 25
e 1 30
e 1 31
e 1 32
e 1 40
e 1 46
e 1 49
e 1 50
e 1 54
e 1 58
e 1 59
e 1 65
e 1 66
e 1 70
e 1 71
e 1 74
e 1 75
e 1 80
e 1 89
e 1 94
e 1 95
e 1 100
e 1 106
e 1 112
e 1 115
e 1 116
e 1 121
e 1 124
e 1 125
e 1 126
e 1 130
e 1 131
e 1 135
e 1 141
e 1 142
e 1 145
e 1 148
e 2 4
e 2 5
e 2 6
e 2 16
e 2 19
e 2 20
e 2 22
e 2 26
e 2 32
e 2 33
e 2 35
e 2 38
e 2 39
e 2 43
e 2 45
e 2 51
e 2 58
e 2 59
e 2 60
e 2 64
e 2 66
e 2 69
e 2 71
e 2 73
e 2 75
e 2 83
e 2 85
e 2 86
e 2 88
e 2 91
e 2 96
e 2 103
e 2 110
e 2 111
e 2 112
e 2 113
e 2 120
e 2 124
e 2 125
e 2 127
e 2 129
e 2 133
e 2 135
e 2 138
e 2 140
e 2 141
e 2 147
e 2 150
e 3 9
e 3 16
e 3 19
e 3 20
e 3 21
e 3 23
e 3 29
e 3 30
e 3 33
e 3 36
e 3 41
e 3 48
e 3 50
e 3 57
e 3 58
e 3 62
e 3 63
e 3 64
e 3 69
e 3 71
e 3 72
e 3 76
e 3 77
e 3 82
e 3 87
e 3 89
e 3 90
e 3 93
e 3 95
e 3 98
e 3 107
e 3 110
e 3 112
e 3 113
e 3 117
e 3 120
e 3 124
e 3 129
e 3 130
e 3 131
e 3 135
e 3 136
e 3 143
e 3 144
e 3 147
e 3 150
e 4 12
e 4 15
e 4 16
e 4 17
e 4 20
e 4 23
e 4 31
e 4 32
e 4 39
e 4 42
e 4 44
e 4 53
e 4 54
e 4 59
e 4 64
e 4 66
e 4 70
e 4 80
e 4 83
e 4 87
e 4 88
e 4 90
e 4 91
e 4 94
e 4 95
e 4 99
e 4 114
e 4 118
e 4 120
e 4 131
e 4 132
e 4 134
e 4 138
e 4 140
e 4 144
e 4 145
e 4 146
e 4 150
e 5 6
e 5 11
e 5 12
e 5 14
e 5 15
e 5 22
e 5 32
e 5 35
e 5 37
e 5 45
e 5 47
e 5 51
e 5 52
e 5 55
e 5 56
e 5 57
e 5 61
e 5 62
e 5 63
e 5 65
e 5 69
e 5 71
e 5 73
e 5 74
e 5 75
e 5 87
e 5 88
e 5 90
e 5 91
e 5 93
e 5 101
e 5 103
e 5 104
e 5 105
e 5 106
e 5 107
e 5 111
e 5 114
e 5 115
e 5 122
e 5 124
e 5 131
e 5 133
e 5 136
e 5 142
e 5 144
e 5 147
e 5 150
e 6 7
e 6 10
e 6 11
e 6 19
e 6 20
e 6 21
e 6 23
e 6 24
e 6 25
e 6 27
e 6 28
e 6 33
e 6 36
e 6 37
e 6 41
e 6 43
e 6 45
e 6 55
e 6 60
e 6 61
e 6 64
e 6 67
e 6 68
e 6 73
e 6 77
e 6 80
e 6 85
e 6 88
e 6 91
e 6 102
e 6 106
e 6 107
e 6 121
e 6 122
e 6 130
e 6 131
e 6 132
e 6 134
e 6 137
e 6 138
e 6 141
e 6 143
e 6 147
e 7 8
e 7 9
e 7 11
e 7 13
e 7 19
e 7 21
e 7 22
e 7 33
e 7 36
e 7 39
e 7 40
e 7 44
e 7 49
e 7 54
e 7 60
e 7 66
e 7 72
e 7 76
e 7 77
e 7 82
e 7 83
e 7 85
e 7 87
e 7 88
e 7 95
e 7 97
e 7 103
e 7 105
e 7 113
e 7 114
e 7 117
e 7 118
e 7 128
e 7 136
e 7 145
e 7 146
e 7 149
e 8 9
e 8 12
e 8 13
e 8 16
e 8 17
e 8 20
e 8 23
e 8 24
e 8 26
e 8 27
e 8 30
e 8 32
e 8 33
e 8 37
e 8 42
e 8 45
e 8 58
e 8 60
e 8 62
e 8 68
e 8 69
e 8 83
e 8 84
e 8 88
e 8 101
e 8 103
e 8 105
e 8 109
e 8 111
e 8 114
e 8 115
e 8 116
e 8 118
e 8 123
e 8 126
e 8 130
e 8 131
e 8 136
e 8 139
e 8 142
e 8 149
e 9 15
e 9 16
e 9 19
e 9 24
e 9 31
e 9 33
e 9 36
e 9 38
e 9 40
e 9 41
e 9 46
e 9 51
e 9 53
e 9 54
e 9 55
e 9 59
e 9 61
e 9 62
e 9 63
e 9 65
e 9 70
e 9 74
e 9 78
e 9 83
e 9 86
e 9 88
e 9 91
e 9 94
e 9 100
e 9 101
e 9 108
e 9 109
e 9 110
e 9 119
e 9 121
e 9 122
e 9 123
e 9 125
e 9 126
e 9 133
e 9 135
e 9 143
e 9 148
e 9 149
e 9 150
e 10 11
e 10 15
e 10 17
e 10 18
e 10 19
e 10 20
e 10 25
e 10 27
e 10 30
e 10 37
e 10 39
e 10 40
e 10 44
e 10 46
e 10 58
e 10 61
e 10 62
e 10 63
e 10 65
e 10 67
e 10 70
e 10 73
e 10 75
e 10 76
e 10 79
e 10 84
e 10 86
e 10 94
e 10 98
e 10 102
e 10 103
e 10 104
e 10 106
e 10 107
e 10 109
e 10 110
e 10 112
e 10 115
e 10 118
e 10 126
e 10 129
e 10 134
e 10 135
e 10 137
e 10 138
e 10 141
e 10 145
e 10 148
e 11 17
e 11 20
e 11 22
e 11 25
e 11 26
e 11 29
e 11 31
e 11 32
e 11 33
e 11 35
e 11 36
e 11 37
e 11 38
e 11 39
e 11 41
e 11 46
e 11 47
e 11 54
e 11 55
e 11 56
e 11 57
e 11 62
e 11 79
e 11 80
e 11 84
e 11 88
e 11 90
e 11 91
e 11 93
e 11 95
e 11 100
e 11 104
e 11 106
e 11 110
e 11 111
e 11 112
e 11 116
e 11 119
e 11 130
e 11 144
e 11 150
e 12 14
e 12 16
e 12 18
e 12 21
e 12 22
e 12 27
e 12 29
e 12 32
e 12 34
e 12 36
e 12 41
e 12 42
e 12 47
e 12 54
e 12 59
e 12 62
e 12 64
e 12 65
e 12 66
e 12 79
e 12 81
e 12 82
e 12 84
e 12 85
e 12 86
e 12 96
e 12 103
e 12 109
e 12 110
e 12 111
e 12 113
e 12 123
e 12 126
e 12 130
e 12 134
e 12 139
e 12 140
e 12 141
e 12 147
e 13 15
e 13 20
e 13 22
e 13 24
e 13 25
e 13 30
e 13 35
e 13 42
e 13 43
e 13 51
e 13 55
e 13 60
e 13 62
e 13 67
e 13 69
e 13 71
e 13 78
e 13 79
e 13 85
e 13 91
e 13 98
e 13 104
e 13 107
e 13 114
e 13 115
e 13 116
e 13 117
e 13 122
e 13 123
e 13 127
e 13 129
e 13 132
e 13 133
e 13 136
e 14 16
e 14 20
e 14 23
e 14 29
e 14 30
e 14 32
e 14 35
e 14 41
e 14 43
e 14 44
e 14 50
e 14 52
e 14 53
e 14 55
e 14 58
e 14 60
e 14 62
e 14 63
e 14 64
e 14 66
e 14 67
e 14 72
e 14 83
e 14 86
e 14 87
e 14 88
e 14 91
e 14 96
e 14 101
e 14 102
e 14 104
e 14 108
e 14 110
e 14 112
e 14 114
e 14 116
e 14 117
e 14 119
e 14 120
e 14 121
e 14 123
e 14 127
e 14 129
e 14 130
e 14 134
e 14 139
e 14 148
e 14 149
e 15 19
e 15 21
e 15 27
e 15 29
e 15 37
e 15 39
e 15 40
e 15 43
e 15 44
e 15 46
e 15 53
e 15 56
e 15 66
e 15 67
e 15 68
e 15 69
e 15 74
e 15 80
e 15 83
e 15 84
e 15 91
e 15 92
e 15 94
e 15 95
e 15 99
e 15 100
e 15 103
e 15 106
e 15 107
e 15 108
e 15 110
e 15 112
e 15 119
e 15 124
e 15 125
e 15 129
e 15 132
e 15 134
e 15 137
e 15 139
e 15 142
e 15 146
e 15 149
e 16 18
e 16 20
e 16 26
e 16 32
e 16 33
e 16 34
e 16 39
e 16 41
e 16 42
e 16 48
e 16 49
e 16 51
e 16 53
e 16 56
e 16 60
e 16 62
e 16 63
e 16 68
e 16 75
e 16 77
e 16 86
e 16 88
e 16 95
e 16 96
e 16 103
e 16 105
e 16 109
e 16 119
e 16 128
e 16 130
e 16 134
e 16 135
e 16 143
e 16 145
e 16 146
e 16 148
e 16 149
e 17 21
e 17 23
e 17 26
e 17 34
e 17 40
e 17 41
e 17 42
e 17 43
e 17 47
e 17 48
e 17 52
e 17 55
e 17 61
e 17 66
e 17 71
e 17 72
e 17 73
e 17 74
e 17 75
e 17 76
e 17 80
e 17 81
e 17 90
e 17 96
e 17 99
e 17 101
e 17 104
e 17 114
e 17 116
e 17 120
e 17 128
e 17 129
e 17 130
e 17 133
e 17 143
e 17 149
e 18 20
e 18 23
e 18 24
e 18 27
e 18 29
e 18 30
e 18 32
e 18 34
e 18 39
e 18 41
e 18 42
e 18 44
e 18 52
e 18 53
e 18 57
e 18 59
e 18 60
e 18 70
e 18 72
e 18 75
e 18 77
e 18 81
e 18 82
e 18 85
e 18 86
e 18 88
e 18 91
e 18 96
e 18 97
e 18 98
e 18 103
e 18 105
e 18 108
e 18 110
e 18 112
e 18 113
e 18 118
e 18 119
e 18 122
e 18 124
e 18 136
e 18 137
e 18 140
e 18 144
e 18 148
e 19 20
e 19 24
e 19 32
e 19 33
e 19 37
e 19 39
e 19 40
e 19 41
e 19 42
e 19 44
e 19 48
e 19 53
e 19 54
e 19 56
e 19 59
e 19 64
e 19 68
e 19 69
e 19 70
e 19 73
e 19 75
e 19 78
e 19 79
e 19 80
e 19 82
e 19 83
e 19 84
e 19 93
e 19 97
e 19 104
e 19 105
e 19 106
e 19 107
e 19 108
e 19 110
e 19 112
e 19 113
e 19 118
e 19 120
e 19 121
e 19 123
e 19 129
e 19 135
e 19 136
e 19 139
e 19 145
e 19 147
e 19 150
e 20 22
e 20 25
e 20 27
e 20 29
e 20 33
e 20 35
e 20 39
e 20 48
e 20 57
e 20 58
e 20 60
e 20 62
e 20 72
e 20 77
e 20 79
e 20 82
e 20 84
e 20 86
e 20 87
e 20 97
e 20 106
e 20 122
e 20 123
e 20 124
e 20 132
e 20 137
e 20 139
e 20 143
e 20 146
e 21 24
e 21 27
e 21 30
e 21 32
e 21 35
e 21 36
e 21 38
e 21 47
e 21 56
e 21 60
e 21 65
e 21 66
e 21 67
e 21 75
e 21 77
e 21 78
e 21 84
e 21 91
e 21 95
e 21 97
e 21 107
e 21 109
e 21 112
e 21 115
e 21 116
e 21 117
e 21 121
e 21 122
e 21 123
e 21 125
e 21 128
e 21 129
e 21 131
e 21 133
e 21 135
e 21 139
e 21 146
e 21 148
e 21 149
e 22 25
e 22 26
e 22 31
e 22 35
e 22 36
e 22 43
e 22 45
e 22 48
e 22 50
e 22 53
e 22 54
e 22 60
e 22 63
e 22 64
e 22 72
e 22 89
e 22 91
e 22 104
e 22 106
e 22 107
e 22 110
e 22 111
e 22 114
e 22 119
e 22 120
e 22 124
e 22 132
e 22 134
e 22 141
e 23 33
e 23 35
e 23 41
e 23 42
e 23 53
e 23 54
e 23 57
e 23 60
e 23 76
e 23 77
e 23 81
e 23 86
e 23 88
e 23 93
e 23 103
e 23 106
e 23 110
e 23 118
e 23 121
e 23 125
e 23 128
e 23 131
e 23 133
e 23 134
e 23 141
e 23 144
e 23 148
e 24 25
e 24 29
e 24 31
e 24 33
e 24 35
e 24 36
e 24 38
e 24 40
e 24 41
e 24 45
e 24 46
e 24 50
e 24 52
e 24 58
e 24 59
e 24 61
e 24 63
e 24 64
e 24 66
e 24 67
e 24 68
e 24 76
e 24 77
e 24 78
e 24 80
e 24 85
e 24 86
e 24 89
e 24 91
e 24 92
e 24 94
e 24 98
e 24 99
e 24 100
e 24 103
e 24 105
e 24 106
e 24 107
e 24 109
e 24 114
e 24 123
e 24 125
e 24 127
e 24 133
e 24 137
e 24 145
e 24 146
e 25 27
e 25 35
e 25 40
e 25 48
e 25 49
e 25 53
e 25 54
e 25 56
e 25 57
e 25 60
e 25 65
e 25 71
e 25 73
e 25 74
e 25 75
e 25 78
e 25 82
e 25 85
e 25 86
e 25 90
e 25 92
e 25 97
e 25 101
e 25 106
e 25 118
e 25 120
e 25 125
e 25 130
e 25 134
e 25 137
e 25 141
e 25 143
e 26 27
e 26 29
e 26 33
e 26 34
e 26 35
e 26 40
e 26 41
e 26 50
e 26 51
e 26 52
e 26 55
e 26 57
e 26 58
e 26 60
e 26 62
e 26 65
e 26 71
e 26 72
e 26 74
e 26 77
e 26 79
e 26 82
e 26 85
e 26 95
e 26 96
e 26 97
e 26 105
e 26 106
e 26 108
e 26 109
e 26 110
e 26 112
e 26 114
e 26 117
e 26 120
e 26 122
e 26 123
e 26 125
e 26 132
e 26 133
e 26 141
e 26 145
e 26 146
e 26 148
e 26 149
e 26 150
e 27 29
e 27 36
e 27 37
e 27 41
e 27 42
e 27 45
e 27 46
e 27 52
e 27 57
e 27 60
e 27 65
e 27 66
e 27 74
e 27 79
e 27 80
e 27 83
e 27 86
e 27 89
e 27 90
e 27 91
e 27 97
e 27 99
e 27 100
e 27 101
e 27 102
e 27 108
e 27 109
e 27 115
e 27 121
e 27 133
e 27 139
e 27 147
e 28 33
e 28 34
e 28 40
e 28 45
e 28 47
e 28 48
e 28 57
e 28 58
e 28 59
e 28 64
e 28 65
e 28 71
e 28 75
e 28 77
e 28 79
e 28 81
e 28 87
e 28 88
e 28 89
e 28 91
e 28 94
e 28 97
e 28 111
e 28 116
e 28 118
e 28 119
e 28 122
e 28 128
e 28 135
e 28 136
e 28 137
e 28 138
e 28 139
e 28 141
e 28 142
e 28 143
e 28 148
e 29 30
e 29 33
e 29 36
e 29 38
e 29 48
e 29 52
e 29 55
e 29 56
e 29 58
e 29 61
e 29 62
e 29 69
e 29 70
e 29 72
e 29 82
e 29 83
e 29 84
e 29 85
e 29 88
e 29 91
e 29 93
e 29 94
e 29 98
e 29 102
e 29 103
e 29 104
e 29 106
e 29 110
e 29 116
e 29 125
e 29 131
e 29 137
e 29 139
e 29 141
e 29 145
e 29 147
e 29 148
e 29 150
e 30 34
e 30 37
e 30 39
e 30 43
e 30 46
e 30 47
e 30 53
e 30 54
e 30 58
e 30 60
e 30 62
e 30 71
e 30 73
e 30 74
e 30 77
e 30 82
e 30 84
e 30 87
e 30 91
e 30 93
e 30 106
e 30 110
e 30 113
e 30 119
e 30 120
e 30 121
e 30 123
e 30 124
e 30 128
e 30 136
e 30 138
e 30 145
e 30 147
e 31 35
e 31 38
e 31 40
e 31 47
e 31 51
e 31 53
e 31 54
e 31 58
e 31 63
e 31 65
e 31 70
e 31 72
e 31 75
e 31 76
e 31 77
e 31 79
e 31 87
e 31 93
e 31 94
e 31 95
e 31 99
e 31 101
e 31 107
e 31 108
e 31 109
e 31 111
e 31 113
e 31 118
e 31 122
e 31 136
e 31 137
e 31 138
e 31 141
e 31 147
e 32 35
e 32 37
e 32 38
e 32 44
e 32 45
e 32 46
e 32 48
e 32 55
e 32 60
e 32 62
e 32 64
e 32 65
e 32 68
e 32 71
e 32 79
e 32 86
e 32 89
e 32 92
e 32 94
e 32 96
e 32 99
e 32 100
e 32 102
e 32 103
e 32 106
e 32 107
e 32 110
e 32 116
e 32 117
e 32 120
e 32 123
e 32 124
e 32 132
e 32 135
e 32 141
e 32 142
e 32 145
e 32 148
e 32 149
e 33 34
e 33 36
e 33 42
e 33 43
e 33 44
e 33 45
e 33 47
e 33 49
e 33 51
e 33 57
e 33 61
e 33 63
e 33 72
e 33 74
e 33 85
e 33 87
e 33 91
e 33 93
e 33 96
e 33 98
e 33 101
e 33 105
e 33 110
e 33 112
e 33 114
e 33 117
e 33 120
e 33 121
e 33 123
e 33 125
e 33 126
e 33 127
e 33 129
e 33 138
e 33 139
e 33 141
e 33 144
e 33 146
e 33 148
e 33 150
e 34 36
e 34 37
e 34 39
e 34 46
e 34 51
e 34 52
e 34 58
e 34 59
e 34 64
e 34 65
e 34 67
e 34 77
e 34 80
e 34 81
e 34 83
e 34 89
e 34 100
e 34 109
e 34 111
e 34 112
e 34 115
e 34 117
e 34 128
e 34 130
e 34 134
e 34 135
e 34 136
e 34 137
e 34 141
e 34 150
e 35 39
e 35 49
e 35 53
e 35 55
e 35 57
e 35 60
e 35 73
e 35 76
e 35 80
e 35 82
e 35 83
e 35 86
e 35 87
e 35 91
e 35 101
e 35 109
e 35 119
e 35 125
e 35 129
e 35 132
e 35 134
e 35 136
e 35 139
e 35 141
e 35 146
e 35 147
e 35 150
e 36 38
e 36 44
e 36 45
e 36 47
e 36 49
e 36 51
e 36 53
e 36 56
e 36 59
e 36 60
e 36 66
e 36 71
e 36 72
e 36 80
e 36 81
e 36 86
e 36 89
e 36 92
e 36 95
e 36 96
e 36 101
e 36 105
e 36 107
e 36 109
e 36 111
e 36 118
e 36 121
e 36 122
e 36 127
e 36 132
e 36 133
e 36 137
e 36 138
e 36 139
e 36 140
e 36 142
e 36 147
e 36 148
e 37 44
e 37 46
e 37 49
e 37 66
e 37 67
e 37 70
e 37 75
e 37 76
e 37 77
e 37 79
e 37 82
e 37 92
e 37 94
e 37 96
e 37 98
e 37 99
e 37 102
e 37 105
e 37 106
e 37 110
e 37 115
e 37 120
e 37 121
e 37 127
e 37 137
e 37 139
e 37 141
e 37 144
e 37 148
e 37 150
e 38 44
e 38 47
e 38 55
e 38 59
e 38 61
e 38 62
e 38 74
e 38 76
e 38 81
e 38 82
e 38 88
e 38 100
e 38 106
e 38 108
e 38 112
e 38 114
e 38 117
e 38 118
e 38 119
e 38 121
e 38 126
e 38 127
e 38 132
e 38 136
e 38 138
e 38 139
e 38 140
e 38 146
e 38 149
e 39 43
e 39 44
e 39 45
e 39 48
e 39 50
e 39 59
e 39 61
e 39 65
e 39 67
e 39 68
e 39 86
e 39 87
e 39 90
e 39 92
e 39 95
e 39 97
e 39 98
e 39 104
e 39 107
e 39 112
e 39 114
e 39 118
e 39 119
e 39 122
e 39 126
e 39 128
e 39 130
e 39 133
e 39 134
e 39 135
e 39 139
e 39 145
e 40 41
e 40 50
e 40 52
e 40 65
e 40 67
e 40 79
e 40 80
e 40 83
e 40 86
e 40 87
e 40 91
e 40 92
e 40 93
e 40 94
e 40 95
e 40 96
e 40 97
e 40 99
e 40 100
e 40 106
e 40 108
e 40 109
e 40 112
e 40 116
e 40 118
e 40 122
e 40 126
e 40 127
e 40 128
e 40 129
e 40 130
e 40 132
e 40 134
e 40 136
e 40 147
e 40 148
e 41 44
e 41 51
e 41 55
e 41 57
e 41 58
e 41 64
e 41 65
e 41 67
e 41 68
e 41 69
e 41 75
e 41 76
e 41 80
e 41 87
e 41 95
e 41 99
e 41 100
e 41 111
e 41 112
e 41 117
e 41 120
e 41 121
e 41 128
e 41 134
e 41 137
e 41 150
e 42 44
e 42 53
e 42 54
e 42 55
e 42 56
e 42 58
e 42 62
e 42 66
e 42 67
e 42 69
e 42 72
e 42 74
e 42 76
e 42 80
e 42 81
e 42 83
e 42 89
e 42 90
e 42 92
e 42 93
e 42 97
e 42 98
e 42 101
e 42 104
e 42 110
e 42 112
e 42 115
e 42 118
e 42 122
e 42 124
e 42 130
e 42 131
e 42 136
e 42 140
e 42 141
e 42 143
e 42 144
e 42 148
e 43 47
e 43 49
e 43 50
e 43 53
e 43 56
e 43 57
e 43 67
e 43 71
e 43 72
e 43 78
e 43 82
e 43 86
e 43 88
e 43 91
e 43 94
e 43 97
e 43 98
e 43 99
e 43 105
e 43 107
e 43 114
e 43 118
e 43 122
e 43 124
e 43 125
e 43 126
e 43 130
e 43 132
e 43 136
e 43 137
e 43 139
e 43 142
e 43 150
e 44 45
e 44 49
e 44 56
e 44 57
e 44 59
e 44 65
e 44 72
e 44 73
e 44 74
e 44 75
e 44 78
e 44 81
e 44 82
e 44 84
e 44 88
e 44 93
e 44 94
e 44 97
e 44 119
e 44 120
e 44 127
e 44 129
e 44 130
e 44 132
e 44 133
e 44 135
e 44 138
e 44 139
e 44 140
e 44 141
e 44 142
e 44 144
e 44 149
e 45 47
e 45 49
e 45 52
e 45 54
e 45 61
e 45 66
e 45 67
e 45 68
e 45 73
e 45 76
e 45 78
e 45 86
e 45 90
e 45 92
e 45 94
e 45 95
e 45 96
e 45 99
e 45 104
e 45 110
e 45 111
e 45 116
e 45 117
e 45 133
e 45 141
e 45 146
e 45 148
e 46 47
e 46 54
e 46 55
e 46 60
e 46 65
e 46 66
e 46 68
e 46 78
e 46 80
e 46 83
e 46 85
e 46 88
e 46 97
e 46 100
e 46 101
e 46 109
e 46 112
e 46 118
e 46 120
e 46 132
e 46 140
e 46 141
e 46 142
e 46 144
e 46 146
e 46 150
e 47 51
e 47 54
e 47 55
e 47 57
e 47 60
e 47 66
e 47 68
e 47 71
e 47 72
e 47 73
e 47 76
e 47 77
e 47 91
e 47 95
e 47 96
e 47 97
e 47 102
e 47 103
e 47 108
e 47 110
e 47 115
e 47 118
e 47 121
e 47 122
e 47 125
e 47 126
e 47 128
e 47 130
e 47 133
e 47 136
e 47 137
e 47 140
e 47 142
e 47 146
e 47 150
e 48 51
e 48 53
e 48 55
e 48 56
e 48 64
e 48 65
e 48 69
e 48 72
e 48 77
e 48 79
e 48 85
e 48 87
e 48 89
e 48 90
e 48 108
e 48 109
e 48 113
e 48 115
e 48 123
e 48 125
e 48 131
e 48 132
e 48 136
e 48 141
e 48 143
e 48 144
e 48 145
e 48 146
e 48 150
e 49 56
e 49 58
e 49 60
e 49 64
e 49 68
e 49 74
e 49 77
e 49 79
e 49 83
e 49 85
e 49 90
e 49 93
e 49 95
e 49 97
e 49 103
e 49 108
e 49 109
e 49 110
e 49 116
e 49 118
e 49 119
e 49 120
e 49 121
e 49 129
e 49 133
e 49 136
e 49 139
e 49 148
e 50 56
e 50 57
e 50 61
e 50 65
e 50 67
e 50 73
e 50 78
e 50 79
e 50 81
e 50 84
e 50 87
e 50 89
e 50 93
e 50 96
e 50 99
e 50 100
e 50 101
e 50 106
e 50 107
e 50 112
e 50 113
e 50 115
e 50 116
e 50 121
e 50 122
e 50 125
e 50 133
e 50 137
e 50 138
e 50 140
e 50 142
e 50 143
e 50 147
e 50 149
e 51 54
e 51 57
e 51 65
e 51 66
e 51 67
e 51 74
e 51 75
e 51 78
e 51 80
e 51 86
e 51 87
e 51 88
e 51 97
e 51 103
e 51 105
e 51 112
e 51 114
e 51 125
e 51 132
e 51 133
e 51 134
e 51 138
e 51 143
e 52 54
e 52 58
e 52 59
e 52 65
e 52 71
e 52 74
e 52 76
e 52 77
e 52 79
e 52 80
e 52 83
e 52 102
e 52 104
e 52 105
e 52 113
e 52 115
e 52 116
e 52 125
e 52 128
e 52 134
e 52 136
e 52 138
e 52 139
e 52 143
e 52 144
e 52 146
e 53 55
e 53 57
e 53 61
e 53 62
e 53 63
e 53 67
e 53 68
e 53 69
e 53 72
e 53 73
e 53 75
e 53 76
e 53 82
e 53 85
e 53 87
e 53 93
e 53 95
e 53 96
e 53 99
e 53 110
e 53 116
e 53 118
e 53 119
e 53 123
e 53 124
e 53 128
e 53 129
e 53 131
e 53 133
e 53 134
e 53 142
e 53 144
e 53 150
e 54 59
e 54 64
e 54 68
e 54 69
e 54 70
e 54 73
e 54 74
e 54 77
e 54 80
e 54 82
e 54 85
e 54 86
e 54 88
e 54 90
e 54 91
e 54 95
e 54 103
e 54 108
e 54 109
e 54 112
e 54 116
e 54 119
e 54 120
e 54 121
e 54 122
e 54 126
e 54 128
e 54 129
e 54 133
e 54 135
e 54 140
e 54 141
e 54 145
e 54 147
e 55 56
e 55 58
e 55 61
e 55 62
e 55 63
e 55 65
e 55 71
e 55 79
e 55 80
e 55 87
e 55 90
e 55 91
e 55 93
e 55 96
e 55 100
e 55 101
e 55 106
e 55 113
e 55 120
e 55 122
e 55 128
e 55 135
e 55 137
e 55 139
e 55 144
e 55 145
e 55 149
e 56 59
e 56 60
e 56 65
e 56 66
e 56 69
e 56 71
e 56 74
e 56 78
e 56 83
e 56 84
e 56 92
e 56 97
e 56 98
e 56 99
e 56 102
e 56 107
e 56 114
e 56 116
e 56 118
e 56 119
e 56 125
e 56 129
e 56 130
e 56 132
e 56 134
e 56 137
e 56 138
e 56 139
e 56 144
e 56 146
e 56 147
e 57 59
e 57 62
e 57 63
e 57 65
e 57 66
e 57 70
e 57 72
e 57 75
e 57 80
e 57 85
e 57 90
e 57 92
e 57 96
e 57 98
e 57 100
e 57 105
e 57 110
e 57 121
e 57 124
e 57 132
e 57 135
e 57 137
e 57 141
e 57 144
e 57 146
e 58 71
e 58 75
e 58 77
e 58 78
e 58 82
e 58 84
e 58 86
e 58 87
e 58 90
e 58 100
e 58 102
e 58 103
e 58 104
e 58 106
e 58 107
e 58 109
e 58 114
e 58 119
e 58 122
e 58 126
e 58 129
e 58 131
e 58 136
e 58 139
e 58 141
e 58 148
e 59 60
e 59 61
e 59 64
e 59 70
e 59 72
e 59 75
e 59 80
e 59 83
e 59 84
e 59 86
e 59 89
e 59 90
e 59 93
e 59 100
e 59 106
e 59 107
e 59 113
e 59 115
e 59 119
e 59 121
e 59 125
e 59 127
e 59 129
e 59 133
e 59 134
e 59 141
e 59 145
e 59 146
e 59 147
e 59 150
e 60 62
e 60 63
e 60 66
e 60 68
e 60 69
e 60 70
e 60 73
e 60 77
e 60 78
e 60 79
e 60 81
e 60 84
e 60 85
e 60 87
e 60 90
e 60 93
e 60 94
e 60 95
e 60 100
e 60 102
e 60 111
e 60 119
e 60 120
e 60 122
e 60 123
e 60 126
e 60 130
e 60 131
e 60 133
e 60 134
e 60 136
e 60 138
e 60 141
e 60 142
e 60 143
e 60 144
e 60 145
e 60 149
e 61 62
e 61 65
e 61 67
e 61 69
e 61 74
e 61 75
e 61 90
e 61 101
e 61 103
e 61 105
e 61 108
e 61 112
e 61 116
e 61 119
e 61 120
e 61 121
e 61 123
e 61 133
e 61 134
e 61 143
e 61 145
e 62 69
e 62 70
e 62 72
e 62 74
e 62 75
e 62 80
e 62 81
e 62 86
e 62 88
e 62 99
e 62 104
e 62 107
e 62 110
e 62 111
e 62 112
e 62 113
e 62 121
e 62 122
e 62 128
e 62 132
e 62 134
e 62 135
e 62 143
e 63 66
e 63 67
e 63 68
e 63 72
e 63 73
e 63 75
e 63 76
e 63 81
e 63 85
e 63 86
e 63 88
e 63 94
e 63 97
e 63 98
e 63 102
e 63 103
e 63 104
e 63 107
e 63 109
e 63 113
e 63 114
e 63 116
e 63 120
e 63 125
e 63 129
e 63 130
e 63 132
e 63 137
e 64 66
e 64 67
e 64 68
e 64 69
e 64 73
e 64 80
e 64 81
e 64 84
e 64 85
e 64 88
e 64 89
e 64 96
e 64 98
e 64 100
e 64 101
e 64 104
e 64 110
e 64 111
e 64 112
e 64 113
e 64 114
e 64 115
e 64 117
e 64 120
e 64 122
e 64 124
e 64 130
e 64 132
e 64 133
e 64 142
e 64 144
e 64 145
e 64 146
e 65 67
e 65 68
e 65 71
e 65 72
e 65 83
e 65 84
e 65 89
e 65 91
e 65 92
e 65 94
e 65 95
e 65 96
e 65 100
e 65 107
e 65 108
e 65 110
e 65 113
e 65 119
e 65 122
e 65 127
e 65 128
e 65 130
e 65 132
e 65 133
e 65 138
e 65 139
e 65 144
e 65 146
e 66 69
e 66 71
e 66 74
e 66 77
e 66 88
e 66 94
e 66 97
e 66 98
e 66 103
e 66 104
e 66 117
e 66 119
e 66 120
e 66 121
e 66 124
e 66 125
e 66 128
e 66 133
e 66 134
e 66 141
e 66 142
e 66 145
e 66 149
e 67 71
e 67 73
e 67 79
e 67 82
e 67 92
e 67 95
e 67 96
e 67 108
e 67 109
e 67 110
e 67 112
e 67 116
e 67 117
e 67 121
e 67 124
e 67 125
e 67 126
e 67 129
e 67 130
e 67 135
e 67 137
e 67 139
e 67 141
e 67 145
e 67 146
e 67 149
e 68 72
e 68 78
e 68 79
e 68 81
e 68 82
e 68 84
e 68 86
e 68 89
e 68 91
e 68 95
e 68 98
e 68 109
e 68 111
e 68 113
e 68 114
e 68 115
e 68 118
e 68 120
e 68 126
e 68 129
e 68 138
e 68 145
e 68 146
e 68 149
e 69 73
e 69 85
e 69 89
e 69 90
e 69 92
e 69 93
e 69 100
e 69 105
e 69 109
e 69 110
e 69 111
e 69 112
e 69 113
e 69 116
e 69 121
e 69 122
e 69 125
e 69 126
e 69 130
e 69 136
e 69 141
e 69 150
e 70 71
e 70 77
e 70 79
e 70 82
e 70 86
e 70 90
e 70 91
e 70 93
e 70 94
e 70 95
e 70 96
e 70 101
e 70 105
e 70 108
e 70 109
e 70 113
e 70 115
e 70 120
e 70 124
e 70 127
e 70 128
e 70 137
e 70 140
e 70 142
e 70 146
e 70 150
e 71 72
e 71 74
e 71 76
e 71 79
e 71 80
e 71 82
e 71 84
e 71 85
e 71 88
e 71 89
e 71 92
e 71 104
e 71 107
e 71 108
e 71 117
e 71 119
e 71 120
e 71 125
e 71 132
e 71 134
e 71 141
e 71 142
e 71 143
e 71 144
e 71 149
e 72 73
e 72 77
e 72 82
e 72 88
e 72 89
e 72 90
e 72 91
e 72 92
e 72 95
e 72 98
e 72 102
e 72 109
e 72 111
e 72 114
e 72 121
e 72 127
e 72 129
e 72 131
e 72 136
e 72 137
e 72 140
e 72 142
e 72 145
e 72 150
e 73 74
e 73 76
e 73 80
e 73 93
e 73 102
e 73 105
e 73 106
e 73 107
e 73 113
e 73 115
e 73 117
e 73 119
e 73 124
e 73 132
e 73 135
e 73 139
e 73 146
e 73 148
e 73 149
e 74 75
e 74 79
e 74 89
e 74 95
e 74 96
e 74 97
e 74 102
e 74 115
e 74 118
e 74 121
e 74 122
e 74 130
e 74 134
e 74 137
e 74 139
e 74 141
e 74 145
e 75 76
e 75 77
e 75 78
e 75 79
e 75 80
e 75 89
e 75 92
e 75 97
e 75 98
e 75 99
e 75 102
e 75 103
e 75 104
e 75 107
e 75 110
e 75 111
e 75 114
e 75 117
e 75 122
e 75 125
e 75 127
e 75 131
e 75 132
e 75 134
e 75 137
e 75 147
e 75 148
e 75 150
e 76 77
e 76 78
e 76 79
e 76 85
e 76 93
e 76 98
e 76 99
e 76 104
e 76 105
e 76 107
e 76 109
e 76 114
e 76 116
e 76 118
e 76 119
e 76 122
e 76 132
e 76 136
e 76 138
e 76 139
e 76 140
e 76 143
e 76 144
e 76 146
e 76 147
e 77 78
e 77 83
e 77 89
e 77 98
e 77 104
e 77 105
e 77 109
e 77 117
e 77 119
e 77 122
e 77 126
e 77 127
e 77 129
e 77 130
e 77 131
e 77 135
e 77 139
e 77 140
e 77 141
e 77 144
e 77 146
e 77 148
e 77 149
e 78 79
e 78 82
e 78 92
e 78 97
e 78 98
e 78 106
e 78 112
e 78 114
e 78 115
e 78 117
e 78 119
e 78 120
e 78 126
e 78 131
e 78 134
e 78 136
e 78 142
e 78 145
e 78 146
e 78 147
e 79 80
e 79 83
e 79 91
e 79 95
e 79 102
e 79 103
e 79 104
e 79 105
e 79 107
e 79 111
e 79 118
e 79 119
e 79 131
e 80 90
e 80 98
e 80 99
e 80 102
e 80 103
e 80 106
e 80 108
e 80 110
e 80 114
e 80 115
e 80 117
e 80 118
e 80 120
e 80 121
e 80 126
e 80 128
e 80 129
e 80 131
e 80 133
e 80 134
e 80 135
e 80 138
e 80 143
e 80 149
e 80 150
e 81 87
e 81 91
e 81 93
e 81 95
e 81 96
e 81 97
e 81 101
e 81 105
e 81 109
e 81 111
e 81 112
e 81 115
e 81 116
e 81 118
e 81 120
e 81 122
e 81 124
e 81 129
e 81 131
e 81 132
e 81 133
e 81 135
e 81 136
e 81 139
e 81 143
e 81 150
e 82 87
e 82 92
e 82 96
e 82 101
e 82 105
e 82 106
e 82 107
e 82 109
e 82 113
e 82 115
e 82 116
e 82 121
e 82 124
e 82 125
e 82 126
e 82 129
e 82 132
e 82 136
e 82 138
e 82 140
e 82 147
e 83 85
e 83 91
e 83 92
e 83 99
e 83 101
e 83 104
e 83 106
e 83 107
e 83 108
e 83 112
e 83 115
e 83 116
e 83 117
e 83 118
e 83 120
e 83 121
e 83 123
e 83 125
e 83 126
e 83 132
e 83 141
e 83 144
e 83 145
e 83 150
e 84 87
e 84 88
e 84 90
e 84 92
e 84 93
e 84 95
e 84 99
e 84 105
e 84 106
e 84 112
e 84 119
e 84 120
e 84 121
e 84 127
e 84 129
e 84 133
e 84 145
e 85 86
e 85 93
e 85 94
e 85 96
e 85 102
e 85 103
e 85 108
e 85 114
e 85 121
e 85 124
e 85 126
e 85 127
e 85 132
e 85 136
e 85 138
e 85 142
e 85 146
e 85 150
e 86 87
e 86 92
e 86 93
e 86 94
e 86 96
e 86 97
e 86 102
e 86 108
e 86 109
e 86 111
e 86 113
e 86 114
e 86 118
e 86 120
e 86 124
e 86 128
e 86 132
e 86 140
e 86 144
e 86 145
e 86 147
e 86 148
e 87 88
e 87 93
e 87 94
e 87 95
e 87 96
e 87 97
e 87 98
e 87 100
e 87 102
e 87 103
e 87 106
e 87 109
e 87 111
e 87 115
e 87 116
e 87 117
e 87 118
e 87 119
e 87 122
e 87 124
e 87 125
e 87 129
e 87 130
e 87 137
e 87 138
e 87 139
e 87 140
e 87 141
e 87 142
e 87 145
e 87 146
e 88 90
e 88 92
e 88 95
e 88 99
e 88 100
e 88 121
e 88 122
e 88 125
e 88 132
e 88 142
e 88 143
e 88 144
e 89 92
e 89 94
e 89 99
e 89 103
e 89 108
e 89 109
e 89 111
e 89 113
e 89 114
e 89 116
e 89 117
e 89 119
e 89 122
e 89 130
e 89 138
e 89 140
e 89 141
e 89 142
e 89 143
e 89 146
e 89 147
e 90 92
e 90 100
e 90 102
e 90 103
e 90 106
e 90 109
e 90 113
e 90 116
e 90 118
e 90 121
e 90 125
e 90 128
e 90 130
e 90 136
e 90 139
e 90 142
e 90 143
e 90 146
e 91 92
e 91 99
e 91 101
e 91 103
e 91 104
e 91 111
e 91 124
e 91 129
e 91 133
e 91 136
e 91 142
e 91 146
e 92 93
e 92 94
e 92 97
e 92 99
e 92 100
e 92 102
e 92 103
e 92 106
e 92 109
e 92 115
e 92 116
e 92 118
e 92 119
e 92 121
e 92 129
e 92 130
e 92 132
e 92 134
e 92 135
e 92 146
e 92 147
e 92 150
e 93 94
e 93 96
e 93 97
e 93 100
e 93 101
e 93 108
e 93 112
e 93 118
e 93 119
e 93 123
e 93 128
e 93 130
e 93 131
e 93 135
e 93 136
e 93 143
e 93 149
e 94 97
e 94 99
e 94 100
e 94 103
e 94 104
e 94 106
e 94 111
e 94 116
e 94 127
e 94 132
e 94 137
e 94 139
e 94 142
e 94 143
e 94 145
e 94 147
e 94 149
e 95 99
e 95 106
e 95 109
e 95 115
e 95 124
e 95 129
e 95 133
e 95 135
e 95 136
e 95 144
e 95 146
e 95 147
e 95 148
e 96 98
e 96 107
e 96 108
e 96 112
e 96 113
e 96 118
e 96 121
e 96 122
e 96 129
e 96 130
e 96 134
e 96 136
e 96 138
e 96 140
e 96 143
e 96 145
e 96 148
e 97 99
e 97 100
e 97 102
e 97 104
e 97 105
e 97 107
e 97 115
e 97 116
e 97 117
e 97 119
e 97 123
e 97 124
e 97 126
e 97 130
e 97 132
e 97 134
e 97 135
e 97 136
e 97 138
e 97 140
e 97 147
e 97 148
e 98 104
e 98 105
e 98 107
e 98 117
e 98 119
e 98 125
e 98 131
e 98 132
e 98 133
e 98 134
e 98 144
e 98 147
e 98 149
e 98 150
e 99 100
e 99 101
e 99 111
e 99 114
e 99 117
e 99 120
e 99 128
e 99 137
e 99 149
e 99 150
e 100 109
e 100 115
e 100 118
e 100 120
e 100 121
e 100 125
e 100 127
e 100 132
e 100 133
e 100 135
e 100 136
e 100 147
e 101 103
e 101 107
e 101 108
e 101 117
e 101 122
e 101 124
e 101 128
e 101 129
e 101 131
e 101 136
e 101 143
e 101 146
e 101 150
e 102 112
e 102 114
e 102 126
e 102 128
e 102 135
e 102 137
e 102 140
e 102 141
e 102 142
e 103 107
e 103 109
e 103 115
e 103 118
e 103 121
e 103 123
e 103 128
e 103 135
e 103 136
e 103 140
e 103 143
e 103 145
e 103 146
e 103 147
e 104 108
e 104 112
e 104 113
e 104 120
e 104 124
e 104 129
e 104 136
e 104 141
e 104 148
e 104 150
e 105 107
e 105 109
e 105 111
e 105 114
e 105 115
e 105 116
e 105 119
e 105 121
e 105 124
e 105 125
e 105 129
e 105 130
e 105 131
e 105 133
e 105 140
e 105 141
e 105 144
e 106 111
e 106 115
e 106 118
e 106 120
e 106 121
e 106 126
e 106 128
e 106 129
e 106 130
e 106 131
e 106 137
e 106 138
e 106 139
e 106 140
e 106 141
e 106 146
e 106 148
e 107 108
e 107 110
e 107 115
e 107 124
e 107 125
e 107 127
e 107 133
e 107 138
e 107 140
e 107 141
e 107 145
e 107 147
e 108 113
e 108 114
e 108 116
e 108 117
e 108 124
e 108 125
e 108 128
e 108 130
e 108 132
e 108 135
e 108 140
e 108 145
e 109 110
e 109 113
e 109 119
e 109 121
e 109 127
e 109 130
e 109 131
e 109 139
e 109 140
e 109 142
e 109 143
e 109 145
e 109 146
e 110 117
e 110 119
e 110 120
e 110 125
e 110 131
e 110 133
e 110 135
e 110 136
e 110 141
e 110 142
e 110 143
e 111 117
e 111 119
e 111 121
e 111 124
e 111 126
e 111 128
e 111 137
e 111 140
e 111 141
e 112 120
e 112 122
e 112 125
e 112 126
e 112 127
e 112 132
e 112 137
e 112 139
e 112 144
e 112 145
e 113 114
e 113 117
e 113 118
e 113 124
e 113 129
e 113 131
e 113 132
e 113 133
e 113 135
e 113 140
e 113 143
e 113 149
e 114 121
e 114 124
e 114 127
e 114 131
e 114 132
e 114 135
e 114 137
e 114 138
e 114 139
e 114 141
e 114 145
e 114 147
e 115 117
e 115 124
e 115 133
e 115 143
e 115 146
e 115 149
e 115 150
e 116 120
e 116 121
e 116 124
e 116 133
e 116 134
e 116 135
e 116 137
e 116 144
e 116 148
e 116 150
e 117 118
e 117 119
e 117 121
e 117 122
e 117 125
e 117 126
e 117 129
e 117 132
e 117 133
e 117 137
e 117 139
e 117 147
e 117 148
e 117 149
e 117 150
e 118 121
e 118 124
e 118 126
e 118 128
e 118 129
e 118 131
e 118 136
e 118 140
e 118 146
e 118 147
e 119 125
e 119 131
e 119 132
e 119 136
e 119 139
e 119 145
e 119 146
e 120 123
e 120 125
e 120 127
e 120 130
e 120 132
e 120 136
e 120 139
e 120 142
e 120 144
e 120 146
e 121 130
e 121 131
e 121 133
e 121 134
e 121 135
e 121 138
e 121 139
e 121 150
e 122 123
e 122 125
e 122 129
e 122 135
e 122 137
e 122 139
e 122 140
e 122 148
e 123 125
e 123 126
e 123 129
e 123 130
e 123 134
e 123 141
e 123 145
e 123 147
e 123 150
e 124 125
e 124 132
e 124 139
e 124 140
e 124 146
e 124 150
e 125 129
e 125 134
e 125 137
e 125 143
e 125 146
e 125 148
e 125 149
e 126 128
e 126 134
e 126 136
e 126 137
e 126 140
e 126 141
e 126 150
e 127 130
e 127 132
e 127 134
e 127 135
e 127 141
e 127 148
e 127 150
e 128 132
e 128 140
e 128 145
e 128 147
e 128 148
e 128 150
e 129 139
e 129 141
e 129 143
e 129 144
e 129 149
e 129 150
e 130 132
e 130 133
e 130 136
e 130 140
e 130 141
e 130 144
e 130 147
e 131 136
e 131 137
e 131 142
e 131 143
e 131 147
e 132 137
e 132 141
e 132 145
e 132 146
e 132 150
e 133 135
e 133 136
e 133 143
e 133 149
e 134 135
e 134 137
e 134 138
e 134 140
e 134 141
e 134 144
e 134 149
e 135 136
e 135 137
e 135 140
e 135 146
e 135 147
e 135 149
e 136 138
e 136 141
e 136 148
e 137 142
e 137 147
e 138 148
e 138 149
e 139 141
e 139 142
e 139 143
e 139 144
e 139 148
e 139 149
e 140 141
e 140 144
e 140 145
e 140 150
e 141 142
e 141 143
e 141 148
e 142 144
e 142 147
e 142 148
e 142 149
e 143 144
e 143 148
e 143 149
e 144 145
e 146 149
e 146 150
e 147 150
e 149 150
